ilp_joint/output/evolution_ilp.lp
Maximize
  0.00661163751999104 Z_106_0_0 + 0.0128927451390187 Z_106_0_1
   + 0.7388731487831204 Z_106_0_2 + 0.0446643680814418 Z_106_0_3
Subject To
 constraint1_1060: Z_106_0_0 + Z_106_0_1 + Z_106_0_2 + Z_106_0_3 <= 1
 constraint2_1060: Z_106_0_0 <= 1
 constraint2_1061: Z_106_0_1 <= 1
 constraint2_1062: Z_106_0_2 <= 1
 constraint2_1063: Z_106_0_3 <= 1
Bounds
Binaries
 Z_106_0_0 Z_106_0_1 Z_106_0_2 Z_106_0_3
End
