ilp_joint/output/evolution_ilp.mps
NAME evolution_srl_ilp
* Max problem is converted into Min one
ROWS
 N  OBJ
 L  constraint1_1060
 L  constraint2_1060
 L  constraint2_1061
 L  constraint2_1062
 L  constraint2_1063
COLUMNS
    MARKER    'MARKER'                 'INTORG'
    Z_106_0_0  OBJ       -6.6116375199910425e-03
    Z_106_0_0  constraint1_1060  1
    Z_106_0_0  constraint2_1060  1
    Z_106_0_1  OBJ       -1.2892745139018714e-02
    Z_106_0_1  constraint1_1060  1
    Z_106_0_1  constraint2_1061  1
    Z_106_0_2  OBJ       -7.3887314878312038e-01
    Z_106_0_2  constraint1_1060  1
    Z_106_0_2  constraint2_1062  1
    Z_106_0_3  OBJ       -4.4664368081441759e-02
    Z_106_0_3  constraint1_1060  1
    Z_106_0_3  constraint2_1063  1
    MARKER    'MARKER'                 'INTEND'
RHS
    RHS1      constraint1_1060  1
    RHS1      constraint2_1060  1
    RHS1      constraint2_1061  1
    RHS1      constraint2_1062  1
    RHS1      constraint2_1063  1
BOUNDS
 UP BND1      Z_106_0_0  1
 UP BND1      Z_106_0_1  1
 UP BND1      Z_106_0_2  1
 UP BND1      Z_106_0_3  1
ENDATA
