ilp_joint/output/evolution_ilp.sol
# Solution for model evolution_srl_ilp
# Objective value = 1.5733548631889076e+00
Z_320_0_0 0
Z_320_0_1 0
Z_320_0_2 1
Z_320_0_3 0
Z_320_0_4 0
Z_320_3_0 0
Z_320_3_1 0
Z_320_3_2 0
Z_320_3_3 0
Z_320_3_4 1
